CapLotSizing_PM/src/Instancias/NCLSLT/6i6p2m/NBB09.OUT
 CG ITER, OVMR, OVMRUB =           1    9305.5576172    7474.7006836
 CG ITER, OVMR, OVMRUB =           2    7474.7006836    7474.7006836
 CG ITER, OVMR, OVMRUB =           3    7132.9980469    7474.7006836
 CG ITER, OVMR, OVMRUB =           4    7297.2089844    7297.2998047
 CG ITER, OVMR, OVMRUB =           5    7181.8969727    7297.2998047
 CG ITER, OVMR, OVMRUB =           6    7128.5000000    7297.2998047
 CG ITER, OVMR, OVMRUB =           7    7106.1191406    7297.2998047
 CG ITER, OVMR, OVMRUB =           8    7094.4145508    7297.2998047
 CG ITER, OVMR, OVMRUB =           9    7087.5107422    7297.2998047
 CG ITER, OVMR, OVMRUB =          10    7084.7949219    7297.2998047
 CG ITER, OVMR, OVMRUB =          11    7083.5385742    7297.2998047
 CG ITER, OVMR, OVMRUB =          12    7083.2084961    7200.4365234
 CG ITER, OVMR, OVMRUB =          13    7082.5864258    7175.9370117
 CG ITER, OVMR, OVMRUB =          14    7082.5864258    7175.9370117
OVLB =    7082.5864258 OVLUB =    7175.9370117 TIME =       0.4400000
